DATASET = "thpack5";
INSTANCE = "029";

WIDTH = 233;
HEIGHT = 220;
LENGTH = 587;

NO_OF_SHAPES = 12;
size = [|
  91,58,57 |
  92,78,53 |
  112,48,28 |
  78,47,26 |
  41,40,28 |
  57,47,32 |
  54,47,40 |
  85,80,25 |
  89,86,54 |
  118,94,68 |
  98,63,36 |
  81,42,38 |
|];

verticality = [|
  1,1,1 |
  1,1,1 |
  0,1,1 |
  0,1,1 |
  1,1,1 |
  1,1,1 |
  1,1,1 |
  0,0,1 |
  1,1,1 |
  1,1,1 |
  0,1,1 |
  0,1,1 |
|];

box_count = [
  11,
  5,
  11,
  11,
  8,
  14,
  11,
  9,
  11,
  13,
  9,
  7,
];
